\ Model CCE_SCH
\ LP format - for model browsing. Use MPS format to capture full model detail.
Minimize
  b[1] + b[2] + b[3] + b[4] + b[5] + b[6] + b[7] + b[8] + b[9] + b[10]
   + b[11] + b[12] + b[13] + b[14] + b[15] + b[16] + b[17] + b[18] + b[19]
   + b[20] + b[21] + b[22] + b[23] + b[24] + b[25] + b[26] + b[27] + b[28]
   + b[29] + b[30] + b[31] + b[32] + b[33] + b[34] + b[35] + b[36] + b[37]
   + b[38] + b[39] + b[40] + b[41] + b[42] + b[43] + b[44] + b[45] + b[46]
   + b[47] + b[48] + b[49] + b[50]
Subject To
 R0: - a[1] + s[1][19] + s[1][20] + s[1][21] + s[1][22] + s[1][23]
   + s[1][24] = 0
 R1: - a[2] + s[2][20] + s[2][24] = 0
 R2: - a[3] + s[3][0] + s[3][8] = 0
 R3: - a[4] + s[4][28] + s[4][29] + s[4][30] + s[4][31] + s[4][32]
   + s[4][33] = 0
 R4: - a[5] + s[5][28] + s[5][30] + s[5][32] + s[5][34] + s[5][36]
   + s[5][38] = 0
 R5: - a[6] + s[6][33] + s[6][34] + s[6][35] + s[6][36] + s[6][37]
   + s[6][38] = 0
 R6: - a[7] + s[7][2] + s[7][3] + s[7][4] + s[7][5] + s[7][6] + s[7][7]
   = 0
 R7: - a[8] + s[8][1] + s[8][2] + s[8][3] + s[8][4] + s[8][5] + s[8][6]
   = 0
 R8: - a[9] + s[9][2] + s[9][3] + s[9][4] + s[9][5] + s[9][6] + s[9][7]
   = 0
 R9: - a[10] + s[10][11] + s[10][12] + s[10][13] + s[10][14] + s[10][15]
   + s[10][16] = 0
 R10: - a[11] + s[11][12] + s[11][14] + s[11][16] + s[11][18] + s[11][20]
   + s[11][22] = 0
 R11: - a[12] + s[12][32] + s[12][36] = 0
 R12: - a[13] + s[13][10] + s[13][11] + s[13][12] + s[13][13] + s[13][14]
   + s[13][15] = 0
 R13: - a[14] + s[14][0] + s[14][2] + s[14][4] + s[14][6] + s[14][8]
   + s[14][10] = 0
 R14: - a[15] + s[15][16] + s[15][18] + s[15][20] + s[15][22] + s[15][24]
   + s[15][26] = 0
 R15: - a[16] + s[16][20] + s[16][21] + s[16][22] + s[16][23] + s[16][24]
   + s[16][25] = 0
 R16: - a[17] + s[17][16] + s[17][24] = 0
 R17: - a[18] + s[18][32] + s[18][33] + s[18][34] + s[18][35] + s[18][36]
   + s[18][37] = 0
 R18: - a[19] + s[19][26] + s[19][28] + s[19][30] + s[19][32] + s[19][34]
   + s[19][36] = 0
 R19: - a[20] + s[20][38] + s[20][0] + s[20][2] + s[20][4] + s[20][6]
   + s[20][8] = 0
 R20: - a[21] + s[21][24] + s[21][26] + s[21][28] + s[21][30] + s[21][32]
   + s[21][34] = 0
 R21: - a[22] + s[22][10] + s[22][12] + s[22][14] + s[22][16] + s[22][18]
   + s[22][20] = 0
 R22: - a[23] + s[23][32] + s[23][33] + s[23][34] + s[23][35] + s[23][36]
   + s[23][37] = 0
 R23: - a[24] + s[24][4] + s[24][8] = 0
 R24: - a[25] + s[25][0] + s[25][4] = 0
 R25: - a[26] + s[26][37] + s[26][38] + s[26][39] + s[26][0] + s[26][1]
   + s[26][2] = 0
 R26: - a[27] + s[27][8] + s[27][16] = 0
 R27: - a[28] + s[28][24] + s[28][32] = 0
 R28: - a[29] + s[29][33] + s[29][34] + s[29][35] + s[29][36] + s[29][37]
   + s[29][38] = 0
 R29: - a[30] + s[30][17] + s[30][18] + s[30][19] + s[30][20] + s[30][21]
   + s[30][22] = 0
 R30: - a[31] + s[31][5] + s[31][6] + s[31][7] + s[31][8] + s[31][9]
   + s[31][10] = 0
 R31: - a[32] + s[32][36] + s[32][0] = 0
 R32: - a[33] + s[33][4] + s[33][8] = 0
 R33: - a[34] + s[34][9] + s[34][10] + s[34][11] + s[34][12] + s[34][13]
   + s[34][14] = 0
 R34: - a[35] + s[35][38] + s[35][39] + s[35][0] + s[35][1] + s[35][2]
   + s[35][3] = 0
 R35: - a[36] + s[36][34] + s[36][35] + s[36][36] + s[36][37] + s[36][38]
   + s[36][39] = 0
 R36: - a[37] + s[37][24] + s[37][32] = 0
 R37: - a[38] + s[38][29] + s[38][30] + s[38][31] + s[38][32] + s[38][33]
   + s[38][34] = 0
 R38: - a[39] + s[39][28] + s[39][32] = 0
 R39: - a[40] + s[40][20] + s[40][22] + s[40][24] + s[40][26] + s[40][28]
   + s[40][30] = 0
 R40: - a[41] + s[41][0] + s[41][4] = 0
 R41: - a[42] + s[42][31] + s[42][32] + s[42][33] + s[42][34] + s[42][35]
   + s[42][36] = 0
 R42: - a[43] + s[43][24] + s[43][28] = 0
 R43: - a[44] + s[44][4] + s[44][8] = 0
 R44: - a[45] + s[45][0] + s[45][8] = 0
 R45: - a[46] + s[46][38] + s[46][0] + s[46][2] + s[46][4] + s[46][6]
   + s[46][8] = 0
 R46: - a[47] + s[47][28] + s[47][30] + s[47][32] + s[47][34] + s[47][36]
   + s[47][38] = 0
 R47: - a[48] + s[48][24] + s[48][26] + s[48][28] + s[48][30] + s[48][32]
   + s[48][34] = 0
 R48: - a[49] + s[49][24] + s[49][32] = 0
 R49: - a[50] + s[50][24] + s[50][32] = 0
 R50: s[3][0] + s[14][0] + s[20][0] + s[25][0] + s[26][0] + s[32][0]
   + s[35][0] + s[41][0] + s[45][0] + s[46][0] - p[0] = 0
 R51: s[3][0] + s[8][1] + s[14][0] + s[20][0] + s[25][0] + s[26][1]
   + s[32][0] + s[35][1] + s[41][0] + s[45][0] + s[46][0] - p[1] = 0
 R52: s[3][0] + s[7][2] + s[8][2] + s[9][2] + s[14][2] + s[20][2]
   + s[25][0] + s[26][2] + s[32][0] + s[35][2] + s[41][0] + s[45][0]
   + s[46][2] - p[2] = 0
 R53: s[3][0] + s[7][3] + s[8][3] + s[9][3] + s[14][2] + s[20][2]
   + s[25][0] + s[32][0] + s[35][3] + s[41][0] + s[45][0] + s[46][2] - p[3]
   = 0
 R54: s[3][0] + s[7][4] + s[8][4] + s[9][4] + s[14][4] + s[20][4]
   + s[24][4] + s[25][4] + s[33][4] + s[41][4] + s[44][4] + s[45][0]
   + s[46][4] - p[4] = 0
 R55: s[3][0] + s[7][5] + s[8][5] + s[9][5] + s[14][4] + s[20][4]
   + s[24][4] + s[25][4] + s[31][5] + s[33][4] + s[41][4] + s[44][4]
   + s[45][0] + s[46][4] - p[5] = 0
 R56: s[3][0] + s[7][6] + s[8][6] + s[9][6] + s[14][6] + s[20][6]
   + s[24][4] + s[25][4] + s[31][6] + s[33][4] + s[41][4] + s[44][4]
   + s[45][0] + s[46][6] - p[6] = 0
 R57: s[3][0] + s[7][7] + s[9][7] + s[14][6] + s[20][6] + s[24][4]
   + s[25][4] + s[31][7] + s[33][4] + s[41][4] + s[44][4] + s[45][0]
   + s[46][6] - p[7] = 0
 R58: s[3][8] + s[14][8] + s[20][8] + s[24][8] + s[27][8] + s[31][8]
   + s[33][8] + s[44][8] + s[45][8] + s[46][8] - p[8] = 0
 R59: s[3][8] + s[14][8] + s[20][8] + s[24][8] + s[27][8] + s[31][9]
   + s[33][8] + s[34][9] + s[44][8] + s[45][8] + s[46][8] - p[9] = 0
 R60: s[3][8] + s[13][10] + s[14][10] + s[22][10] + s[24][8] + s[27][8]
   + s[31][10] + s[33][8] + s[34][10] + s[44][8] + s[45][8] - p[10] = 0
 R61: s[3][8] + s[10][11] + s[13][11] + s[14][10] + s[22][10] + s[24][8]
   + s[27][8] + s[33][8] + s[34][11] + s[44][8] + s[45][8] - p[11] = 0
 R62: s[3][8] + s[10][12] + s[11][12] + s[13][12] + s[22][12] + s[27][8]
   + s[34][12] + s[45][8] - p[12] = 0
 R63: s[3][8] + s[10][13] + s[11][12] + s[13][13] + s[22][12] + s[27][8]
   + s[34][13] + s[45][8] - p[13] = 0
 R64: s[3][8] + s[10][14] + s[11][14] + s[13][14] + s[22][14] + s[27][8]
   + s[34][14] + s[45][8] - p[14] = 0
 R65: s[3][8] + s[10][15] + s[11][14] + s[13][15] + s[22][14] + s[27][8]
   + s[45][8] - p[15] = 0
 R66: s[10][16] + s[11][16] + s[15][16] + s[17][16] + s[22][16] + s[27][16]
   - p[16] = 0
 R67: s[11][16] + s[15][16] + s[17][16] + s[22][16] + s[27][16] + s[30][17]
   - p[17] = 0
 R68: s[11][18] + s[15][18] + s[17][16] + s[22][18] + s[27][16] + s[30][18]
   - p[18] = 0
 R69: s[1][19] + s[11][18] + s[15][18] + s[17][16] + s[22][18] + s[27][16]
   + s[30][19] - p[19] = 0
 R70: s[1][20] + s[2][20] + s[11][20] + s[15][20] + s[16][20] + s[17][16]
   + s[22][20] + s[27][16] + s[30][20] + s[40][20] - p[20] = 0
 R71: s[1][21] + s[2][20] + s[11][20] + s[15][20] + s[16][21] + s[17][16]
   + s[22][20] + s[27][16] + s[30][21] + s[40][20] - p[21] = 0
 R72: s[1][22] + s[2][20] + s[11][22] + s[15][22] + s[16][22] + s[17][16]
   + s[27][16] + s[30][22] + s[40][22] - p[22] = 0
 R73: s[1][23] + s[2][20] + s[11][22] + s[15][22] + s[16][23] + s[17][16]
   + s[27][16] + s[40][22] - p[23] = 0
 R74: s[1][24] + s[2][24] + s[15][24] + s[16][24] + s[17][24] + s[21][24]
   + s[28][24] + s[37][24] + s[40][24] + s[43][24] + s[48][24] + s[49][24]
   + s[50][24] - p[24] = 0
 R75: s[2][24] + s[15][24] + s[16][25] + s[17][24] + s[21][24] + s[28][24]
   + s[37][24] + s[40][24] + s[43][24] + s[48][24] + s[49][24] + s[50][24]
   - p[25] = 0
 R76: s[2][24] + s[15][26] + s[17][24] + s[19][26] + s[21][26] + s[28][24]
   + s[37][24] + s[40][26] + s[43][24] + s[48][26] + s[49][24] + s[50][24]
   - p[26] = 0
 R77: s[2][24] + s[15][26] + s[17][24] + s[19][26] + s[21][26] + s[28][24]
   + s[37][24] + s[40][26] + s[43][24] + s[48][26] + s[49][24] + s[50][24]
   - p[27] = 0
 R78: s[4][28] + s[5][28] + s[17][24] + s[19][28] + s[21][28] + s[28][24]
   + s[37][24] + s[39][28] + s[40][28] + s[43][28] + s[47][28] + s[48][28]
   + s[49][24] + s[50][24] - p[28] = 0
 R79: s[4][29] + s[5][28] + s[17][24] + s[19][28] + s[21][28] + s[28][24]
   + s[37][24] + s[38][29] + s[39][28] + s[40][28] + s[43][28] + s[47][28]
   + s[48][28] + s[49][24] + s[50][24] - p[29] = 0
 R80: s[4][30] + s[5][30] + s[17][24] + s[19][30] + s[21][30] + s[28][24]
   + s[37][24] + s[38][30] + s[39][28] + s[40][30] + s[43][28] + s[47][30]
   + s[48][30] + s[49][24] + s[50][24] - p[30] = 0
 R81: s[4][31] + s[5][30] + s[17][24] + s[19][30] + s[21][30] + s[28][24]
   + s[37][24] + s[38][31] + s[39][28] + s[40][30] + s[42][31] + s[43][28]
   + s[47][30] + s[48][30] + s[49][24] + s[50][24] - p[31] = 0
 R82: s[4][32] + s[5][32] + s[12][32] + s[18][32] + s[19][32] + s[21][32]
   + s[23][32] + s[28][32] + s[37][32] + s[38][32] + s[39][32] + s[42][32]
   + s[47][32] + s[48][32] + s[49][32] + s[50][32] - p[32] = 0
 R83: s[4][33] + s[5][32] + s[6][33] + s[12][32] + s[18][33] + s[19][32]
   + s[21][32] + s[23][33] + s[28][32] + s[29][33] + s[37][32] + s[38][33]
   + s[39][32] + s[42][33] + s[47][32] + s[48][32] + s[49][32] + s[50][32]
   - p[33] = 0
 R84: s[5][34] + s[6][34] + s[12][32] + s[18][34] + s[19][34] + s[21][34]
   + s[23][34] + s[28][32] + s[29][34] + s[36][34] + s[37][32] + s[38][34]
   + s[39][32] + s[42][34] + s[47][34] + s[48][34] + s[49][32] + s[50][32]
   - p[34] = 0
 R85: s[5][34] + s[6][35] + s[12][32] + s[18][35] + s[19][34] + s[21][34]
   + s[23][35] + s[28][32] + s[29][35] + s[36][35] + s[37][32] + s[39][32]
   + s[42][35] + s[47][34] + s[48][34] + s[49][32] + s[50][32] - p[35] = 0
 R86: s[5][36] + s[6][36] + s[12][36] + s[18][36] + s[19][36] + s[23][36]
   + s[28][32] + s[29][36] + s[32][36] + s[36][36] + s[37][32] + s[42][36]
   + s[47][36] + s[49][32] + s[50][32] - p[36] = 0
 R87: s[5][36] + s[6][37] + s[12][36] + s[18][37] + s[19][36] + s[23][37]
   + s[26][37] + s[28][32] + s[29][37] + s[32][36] + s[36][37] + s[37][32]
   + s[47][36] + s[49][32] + s[50][32] - p[37] = 0
 R88: s[5][38] + s[6][38] + s[12][36] + s[20][38] + s[26][38] + s[28][32]
   + s[29][38] + s[32][36] + s[35][38] + s[36][38] + s[37][32] + s[46][38]
   + s[47][38] + s[49][32] + s[50][32] - p[38] = 0
 R89: s[5][38] + s[12][36] + s[20][38] + s[26][39] + s[28][32] + s[32][36]
   + s[35][39] + s[36][39] + s[37][32] + s[46][38] + s[47][38] + s[49][32]
   + s[50][32] - p[39] = 0
 R90: - k[1] + k[2] <= 0
 R91: - k[2] + k[3] <= 0
 R92: - k[3] + k[4] <= 0
 R93: - k[4] + k[5] <= 0
 R94: - k[5] + k[6] <= 0
 R95: - k[6] + k[7] <= 0
 R96: - k[7] + k[8] <= 0
 R97: - k[8] + k[9] <= 0
 R98: - k[9] + k[10] <= 0
 R99: - k[10] + k[11] <= 0
 R100: - k[11] + k[12] <= 0
 R101: - k[12] + k[13] <= 0
 R102: - k[13] + k[14] <= 0
 R103: - k[14] + k[15] <= 0
 R104: - k[15] + k[16] <= 0
 R105: - k[16] + k[17] <= 0
 R106: - k[17] + k[18] <= 0
 R107: - k[18] + k[19] <= 0
 R108: - k[19] + k[20] <= 0
 R109: - k[20] + k[21] <= 0
 R110: - k[21] + k[22] <= 0
 R111: - k[22] + k[23] <= 0
 R112: - k[23] + k[24] <= 0
 R113: - k[24] + k[25] <= 0
 R114: - k[25] + k[26] <= 0
 R115: - k[26] + k[27] <= 0
 R116: - k[27] + k[28] <= 0
 R117: - k[28] + k[29] <= 0
 R118: - k[29] + k[30] <= 0
 R119: - k[30] + k[31] <= 0
 R120: - k[31] + k[32] <= 0
 R121: - k[32] + k[33] <= 0
 R122: - k[33] + k[34] <= 0
 R123: - k[34] + k[35] <= 0
 R124: - k[35] + k[36] <= 0
 R125: - k[36] + k[37] <= 0
 R126: - k[37] + k[38] <= 0
 R127: - k[38] + k[39] <= 0
 R128: - k[39] + k[40] <= 0
 R129: - k[40] + k[41] <= 0
 R130: - k[41] + k[42] <= 0
 R131: - k[42] + k[43] <= 0
 R132: - k[43] + k[44] <= 0
 R133: - k[44] + k[45] <= 0
 R134: - k[45] + k[46] <= 0
 R135: - k[46] + k[47] <= 0
 R136: - k[47] + k[48] <= 0
 R137: - k[48] + k[49] <= 0
 R138: - k[49] + k[50] <= 0
 R139: - k[1] + a[1] + a[2] + a[3] + a[4] + a[5] + a[6] + a[7] + a[8]
   + a[9] + a[10] + a[11] + a[12] + a[13] + a[14] + a[15] + a[16] + a[17]
   + a[18] + a[19] + a[20] + a[21] + a[22] + a[23] + a[24] + a[25] + a[26]
   + a[27] + a[28] + a[29] + a[30] + a[31] + a[32] + a[33] + a[34] + a[35]
   + a[36] + a[37] + a[38] + a[39] + a[40] + a[41] + a[42] + a[43] + a[44]
   + a[45] + a[46] + a[47] + a[48] + a[49] + a[50] >= 0
 R140: - k[2] + a[2] + a[3] + a[4] + a[5] + a[6] + a[7] + a[8] + a[9]
   + a[10] + a[11] + a[12] + a[13] + a[14] + a[15] + a[16] + a[17] + a[18]
   + a[19] + a[20] + a[21] + a[22] + a[23] + a[24] + a[25] + a[26] + a[27]
   + a[28] + a[29] + a[30] + a[31] + a[32] + a[33] + a[34] + a[35] + a[36]
   + a[37] + a[38] + a[39] + a[40] + a[41] + a[42] + a[43] + a[44] + a[45]
   + a[46] + a[47] + a[48] + a[49] + a[50] >= 0
 R141: - k[3] + a[3] + a[4] + a[5] + a[6] + a[7] + a[8] + a[9] + a[10]
   + a[11] + a[12] + a[13] + a[14] + a[15] + a[16] + a[17] + a[18] + a[19]
   + a[20] + a[21] + a[22] + a[23] + a[24] + a[25] + a[26] + a[27] + a[28]
   + a[29] + a[30] + a[31] + a[32] + a[33] + a[34] + a[35] + a[36] + a[37]
   + a[38] + a[39] + a[40] + a[41] + a[42] + a[43] + a[44] + a[45] + a[46]
   + a[47] + a[48] + a[49] + a[50] >= 0
 R142: - k[4] + a[4] + a[5] + a[6] + a[7] + a[8] + a[9] + a[10] + a[11]
   + a[12] + a[13] + a[14] + a[15] + a[16] + a[17] + a[18] + a[19] + a[20]
   + a[21] + a[22] + a[23] + a[24] + a[25] + a[26] + a[27] + a[28] + a[29]
   + a[30] + a[31] + a[32] + a[33] + a[34] + a[35] + a[36] + a[37] + a[38]
   + a[39] + a[40] + a[41] + a[42] + a[43] + a[44] + a[45] + a[46] + a[47]
   + a[48] + a[49] + a[50] >= 0
 R143: - k[5] + a[5] + a[6] + a[7] + a[8] + a[9] + a[10] + a[11] + a[12]
   + a[13] + a[14] + a[15] + a[16] + a[17] + a[18] + a[19] + a[20] + a[21]
   + a[22] + a[23] + a[24] + a[25] + a[26] + a[27] + a[28] + a[29] + a[30]
   + a[31] + a[32] + a[33] + a[34] + a[35] + a[36] + a[37] + a[38] + a[39]
   + a[40] + a[41] + a[42] + a[43] + a[44] + a[45] + a[46] + a[47] + a[48]
   + a[49] + a[50] >= 0
 R144: - k[6] + a[6] + a[7] + a[8] + a[9] + a[10] + a[11] + a[12] + a[13]
   + a[14] + a[15] + a[16] + a[17] + a[18] + a[19] + a[20] + a[21] + a[22]
   + a[23] + a[24] + a[25] + a[26] + a[27] + a[28] + a[29] + a[30] + a[31]
   + a[32] + a[33] + a[34] + a[35] + a[36] + a[37] + a[38] + a[39] + a[40]
   + a[41] + a[42] + a[43] + a[44] + a[45] + a[46] + a[47] + a[48] + a[49]
   + a[50] >= 0
 R145: - k[7] + a[7] + a[8] + a[9] + a[10] + a[11] + a[12] + a[13] + a[14]
   + a[15] + a[16] + a[17] + a[18] + a[19] + a[20] + a[21] + a[22] + a[23]
   + a[24] + a[25] + a[26] + a[27] + a[28] + a[29] + a[30] + a[31] + a[32]
   + a[33] + a[34] + a[35] + a[36] + a[37] + a[38] + a[39] + a[40] + a[41]
   + a[42] + a[43] + a[44] + a[45] + a[46] + a[47] + a[48] + a[49] + a[50]
   >= 0
 R146: - k[8] + a[8] + a[9] + a[10] + a[11] + a[12] + a[13] + a[14] + a[15]
   + a[16] + a[17] + a[18] + a[19] + a[20] + a[21] + a[22] + a[23] + a[24]
   + a[25] + a[26] + a[27] + a[28] + a[29] + a[30] + a[31] + a[32] + a[33]
   + a[34] + a[35] + a[36] + a[37] + a[38] + a[39] + a[40] + a[41] + a[42]
   + a[43] + a[44] + a[45] + a[46] + a[47] + a[48] + a[49] + a[50] >= 0
 R147: - k[9] + a[9] + a[10] + a[11] + a[12] + a[13] + a[14] + a[15]
   + a[16] + a[17] + a[18] + a[19] + a[20] + a[21] + a[22] + a[23] + a[24]
   + a[25] + a[26] + a[27] + a[28] + a[29] + a[30] + a[31] + a[32] + a[33]
   + a[34] + a[35] + a[36] + a[37] + a[38] + a[39] + a[40] + a[41] + a[42]
   + a[43] + a[44] + a[45] + a[46] + a[47] + a[48] + a[49] + a[50] >= 0
 R148: - k[10] + a[10] + a[11] + a[12] + a[13] + a[14] + a[15] + a[16]
   + a[17] + a[18] + a[19] + a[20] + a[21] + a[22] + a[23] + a[24] + a[25]
   + a[26] + a[27] + a[28] + a[29] + a[30] + a[31] + a[32] + a[33] + a[34]
   + a[35] + a[36] + a[37] + a[38] + a[39] + a[40] + a[41] + a[42] + a[43]
   + a[44] + a[45] + a[46] + a[47] + a[48] + a[49] + a[50] >= 0
 R149: - k[11] + a[11] + a[12] + a[13] + a[14] + a[15] + a[16] + a[17]
   + a[18] + a[19] + a[20] + a[21] + a[22] + a[23] + a[24] + a[25] + a[26]
   + a[27] + a[28] + a[29] + a[30] + a[31] + a[32] + a[33] + a[34] + a[35]
   + a[36] + a[37] + a[38] + a[39] + a[40] + a[41] + a[42] + a[43] + a[44]
   + a[45] + a[46] + a[47] + a[48] + a[49] + a[50] >= 0
 R150: - k[12] + a[12] + a[13] + a[14] + a[15] + a[16] + a[17] + a[18]
   + a[19] + a[20] + a[21] + a[22] + a[23] + a[24] + a[25] + a[26] + a[27]
   + a[28] + a[29] + a[30] + a[31] + a[32] + a[33] + a[34] + a[35] + a[36]
   + a[37] + a[38] + a[39] + a[40] + a[41] + a[42] + a[43] + a[44] + a[45]
   + a[46] + a[47] + a[48] + a[49] + a[50] >= 0
 R151: - k[13] + a[13] + a[14] + a[15] + a[16] + a[17] + a[18] + a[19]
   + a[20] + a[21] + a[22] + a[23] + a[24] + a[25] + a[26] + a[27] + a[28]
   + a[29] + a[30] + a[31] + a[32] + a[33] + a[34] + a[35] + a[36] + a[37]
   + a[38] + a[39] + a[40] + a[41] + a[42] + a[43] + a[44] + a[45] + a[46]
   + a[47] + a[48] + a[49] + a[50] >= 0
 R152: - k[14] + a[14] + a[15] + a[16] + a[17] + a[18] + a[19] + a[20]
   + a[21] + a[22] + a[23] + a[24] + a[25] + a[26] + a[27] + a[28] + a[29]
   + a[30] + a[31] + a[32] + a[33] + a[34] + a[35] + a[36] + a[37] + a[38]
   + a[39] + a[40] + a[41] + a[42] + a[43] + a[44] + a[45] + a[46] + a[47]
   + a[48] + a[49] + a[50] >= 0
 R153: - k[15] + a[15] + a[16] + a[17] + a[18] + a[19] + a[20] + a[21]
   + a[22] + a[23] + a[24] + a[25] + a[26] + a[27] + a[28] + a[29] + a[30]
   + a[31] + a[32] + a[33] + a[34] + a[35] + a[36] + a[37] + a[38] + a[39]
   + a[40] + a[41] + a[42] + a[43] + a[44] + a[45] + a[46] + a[47] + a[48]
   + a[49] + a[50] >= 0
 R154: - k[16] + a[16] + a[17] + a[18] + a[19] + a[20] + a[21] + a[22]
   + a[23] + a[24] + a[25] + a[26] + a[27] + a[28] + a[29] + a[30] + a[31]
   + a[32] + a[33] + a[34] + a[35] + a[36] + a[37] + a[38] + a[39] + a[40]
   + a[41] + a[42] + a[43] + a[44] + a[45] + a[46] + a[47] + a[48] + a[49]
   + a[50] >= 0
 R155: - k[17] + a[17] + a[18] + a[19] + a[20] + a[21] + a[22] + a[23]
   + a[24] + a[25] + a[26] + a[27] + a[28] + a[29] + a[30] + a[31] + a[32]
   + a[33] + a[34] + a[35] + a[36] + a[37] + a[38] + a[39] + a[40] + a[41]
   + a[42] + a[43] + a[44] + a[45] + a[46] + a[47] + a[48] + a[49] + a[50]
   >= 0
 R156: - k[18] + a[18] + a[19] + a[20] + a[21] + a[22] + a[23] + a[24]
   + a[25] + a[26] + a[27] + a[28] + a[29] + a[30] + a[31] + a[32] + a[33]
   + a[34] + a[35] + a[36] + a[37] + a[38] + a[39] + a[40] + a[41] + a[42]
   + a[43] + a[44] + a[45] + a[46] + a[47] + a[48] + a[49] + a[50] >= 0
 R157: - k[19] + a[19] + a[20] + a[21] + a[22] + a[23] + a[24] + a[25]
   + a[26] + a[27] + a[28] + a[29] + a[30] + a[31] + a[32] + a[33] + a[34]
   + a[35] + a[36] + a[37] + a[38] + a[39] + a[40] + a[41] + a[42] + a[43]
   + a[44] + a[45] + a[46] + a[47] + a[48] + a[49] + a[50] >= 0
 R158: - k[20] + a[20] + a[21] + a[22] + a[23] + a[24] + a[25] + a[26]
   + a[27] + a[28] + a[29] + a[30] + a[31] + a[32] + a[33] + a[34] + a[35]
   + a[36] + a[37] + a[38] + a[39] + a[40] + a[41] + a[42] + a[43] + a[44]
   + a[45] + a[46] + a[47] + a[48] + a[49] + a[50] >= 0
 R159: - k[21] + a[21] + a[22] + a[23] + a[24] + a[25] + a[26] + a[27]
   + a[28] + a[29] + a[30] + a[31] + a[32] + a[33] + a[34] + a[35] + a[36]
   + a[37] + a[38] + a[39] + a[40] + a[41] + a[42] + a[43] + a[44] + a[45]
   + a[46] + a[47] + a[48] + a[49] + a[50] >= 0
 R160: - k[22] + a[22] + a[23] + a[24] + a[25] + a[26] + a[27] + a[28]
   + a[29] + a[30] + a[31] + a[32] + a[33] + a[34] + a[35] + a[36] + a[37]
   + a[38] + a[39] + a[40] + a[41] + a[42] + a[43] + a[44] + a[45] + a[46]
   + a[47] + a[48] + a[49] + a[50] >= 0
 R161: - k[23] + a[23] + a[24] + a[25] + a[26] + a[27] + a[28] + a[29]
   + a[30] + a[31] + a[32] + a[33] + a[34] + a[35] + a[36] + a[37] + a[38]
   + a[39] + a[40] + a[41] + a[42] + a[43] + a[44] + a[45] + a[46] + a[47]
   + a[48] + a[49] + a[50] >= 0
 R162: - k[24] + a[24] + a[25] + a[26] + a[27] + a[28] + a[29] + a[30]
   + a[31] + a[32] + a[33] + a[34] + a[35] + a[36] + a[37] + a[38] + a[39]
   + a[40] + a[41] + a[42] + a[43] + a[44] + a[45] + a[46] + a[47] + a[48]
   + a[49] + a[50] >= 0
 R163: - k[25] + a[25] + a[26] + a[27] + a[28] + a[29] + a[30] + a[31]
   + a[32] + a[33] + a[34] + a[35] + a[36] + a[37] + a[38] + a[39] + a[40]
   + a[41] + a[42] + a[43] + a[44] + a[45] + a[46] + a[47] + a[48] + a[49]
   + a[50] >= 0
 R164: - k[26] + a[26] + a[27] + a[28] + a[29] + a[30] + a[31] + a[32]
   + a[33] + a[34] + a[35] + a[36] + a[37] + a[38] + a[39] + a[40] + a[41]
   + a[42] + a[43] + a[44] + a[45] + a[46] + a[47] + a[48] + a[49] + a[50]
   >= 0
 R165: - k[27] + a[27] + a[28] + a[29] + a[30] + a[31] + a[32] + a[33]
   + a[34] + a[35] + a[36] + a[37] + a[38] + a[39] + a[40] + a[41] + a[42]
   + a[43] + a[44] + a[45] + a[46] + a[47] + a[48] + a[49] + a[50] >= 0
 R166: - k[28] + a[28] + a[29] + a[30] + a[31] + a[32] + a[33] + a[34]
   + a[35] + a[36] + a[37] + a[38] + a[39] + a[40] + a[41] + a[42] + a[43]
   + a[44] + a[45] + a[46] + a[47] + a[48] + a[49] + a[50] >= 0
 R167: - k[29] + a[29] + a[30] + a[31] + a[32] + a[33] + a[34] + a[35]
   + a[36] + a[37] + a[38] + a[39] + a[40] + a[41] + a[42] + a[43] + a[44]
   + a[45] + a[46] + a[47] + a[48] + a[49] + a[50] >= 0
 R168: - k[30] + a[30] + a[31] + a[32] + a[33] + a[34] + a[35] + a[36]
   + a[37] + a[38] + a[39] + a[40] + a[41] + a[42] + a[43] + a[44] + a[45]
   + a[46] + a[47] + a[48] + a[49] + a[50] >= 0
 R169: - k[31] + a[31] + a[32] + a[33] + a[34] + a[35] + a[36] + a[37]
   + a[38] + a[39] + a[40] + a[41] + a[42] + a[43] + a[44] + a[45] + a[46]
   + a[47] + a[48] + a[49] + a[50] >= 0
 R170: - k[32] + a[32] + a[33] + a[34] + a[35] + a[36] + a[37] + a[38]
   + a[39] + a[40] + a[41] + a[42] + a[43] + a[44] + a[45] + a[46] + a[47]
   + a[48] + a[49] + a[50] >= 0
 R171: - k[33] + a[33] + a[34] + a[35] + a[36] + a[37] + a[38] + a[39]
   + a[40] + a[41] + a[42] + a[43] + a[44] + a[45] + a[46] + a[47] + a[48]
   + a[49] + a[50] >= 0
 R172: - k[34] + a[34] + a[35] + a[36] + a[37] + a[38] + a[39] + a[40]
   + a[41] + a[42] + a[43] + a[44] + a[45] + a[46] + a[47] + a[48] + a[49]
   + a[50] >= 0
 R173: - k[35] + a[35] + a[36] + a[37] + a[38] + a[39] + a[40] + a[41]
   + a[42] + a[43] + a[44] + a[45] + a[46] + a[47] + a[48] + a[49] + a[50]
   >= 0
 R174: - k[36] + a[36] + a[37] + a[38] + a[39] + a[40] + a[41] + a[42]
   + a[43] + a[44] + a[45] + a[46] + a[47] + a[48] + a[49] + a[50] >= 0
 R175: - k[37] + a[37] + a[38] + a[39] + a[40] + a[41] + a[42] + a[43]
   + a[44] + a[45] + a[46] + a[47] + a[48] + a[49] + a[50] >= 0
 R176: - k[38] + a[38] + a[39] + a[40] + a[41] + a[42] + a[43] + a[44]
   + a[45] + a[46] + a[47] + a[48] + a[49] + a[50] >= 0
 R177: - k[39] + a[39] + a[40] + a[41] + a[42] + a[43] + a[44] + a[45]
   + a[46] + a[47] + a[48] + a[49] + a[50] >= 0
 R178: - k[40] + a[40] + a[41] + a[42] + a[43] + a[44] + a[45] + a[46]
   + a[47] + a[48] + a[49] + a[50] >= 0
 R179: - k[41] + a[41] + a[42] + a[43] + a[44] + a[45] + a[46] + a[47]
   + a[48] + a[49] + a[50] >= 0
 R180: - k[42] + a[42] + a[43] + a[44] + a[45] + a[46] + a[47] + a[48]
   + a[49] + a[50] >= 0
 R181: - k[43] + a[43] + a[44] + a[45] + a[46] + a[47] + a[48] + a[49]
   + a[50] >= 0
 R182: - k[44] + a[44] + a[45] + a[46] + a[47] + a[48] + a[49] + a[50]
   >= 0
 R183: - k[45] + a[45] + a[46] + a[47] + a[48] + a[49] + a[50] >= 0
 R184: - k[46] + a[46] + a[47] + a[48] + a[49] + a[50] >= 0
 R185: - k[47] + a[47] + a[48] + a[49] + a[50] >= 0
 R186: - k[48] + a[48] + a[49] + a[50] >= 0
 R187: - k[49] + a[49] + a[50] >= 0
 R188: - k[50] + a[50] >= 0
 R189: - k[1] + a[1] <= 0
 R190: - k[2] + a[2] <= 0
 R191: - k[3] + a[3] <= 0
 R192: - k[4] + a[4] <= 0
 R193: - k[5] + a[5] <= 0
 R194: - k[6] + a[6] <= 0
 R195: - k[7] + a[7] <= 0
 R196: - k[8] + a[8] <= 0
 R197: - k[9] + a[9] <= 0
 R198: - k[10] + a[10] <= 0
 R199: - k[11] + a[11] <= 0
 R200: - k[12] + a[12] <= 0
 R201: - k[13] + a[13] <= 0
 R202: - k[14] + a[14] <= 0
 R203: - k[15] + a[15] <= 0
 R204: - k[16] + a[16] <= 0
 R205: - k[17] + a[17] <= 0
 R206: - k[18] + a[18] <= 0
 R207: - k[19] + a[19] <= 0
 R208: - k[20] + a[20] <= 0
 R209: - k[21] + a[21] <= 0
 R210: - k[22] + a[22] <= 0
 R211: - k[23] + a[23] <= 0
 R212: - k[24] + a[24] <= 0
 R213: - k[25] + a[25] <= 0
 R214: - k[26] + a[26] <= 0
 R215: - k[27] + a[27] <= 0
 R216: - k[28] + a[28] <= 0
 R217: - k[29] + a[29] <= 0
 R218: - k[30] + a[30] <= 0
 R219: - k[31] + a[31] <= 0
 R220: - k[32] + a[32] <= 0
 R221: - k[33] + a[33] <= 0
 R222: - k[34] + a[34] <= 0
 R223: - k[35] + a[35] <= 0
 R224: - k[36] + a[36] <= 0
 R225: - k[37] + a[37] <= 0
 R226: - k[38] + a[38] <= 0
 R227: - k[39] + a[39] <= 0
 R228: - k[40] + a[40] <= 0
 R229: - k[41] + a[41] <= 0
 R230: - k[42] + a[42] <= 0
 R231: - k[43] + a[43] <= 0
 R232: - k[44] + a[44] <= 0
 R233: - k[45] + a[45] <= 0
 R234: - k[46] + a[46] <= 0
 R235: - k[47] + a[47] <= 0
 R236: - k[48] + a[48] <= 0
 R237: - k[49] + a[49] <= 0
 R238: - k[50] + a[50] <= 0
 R239: p[0] + p[1] + p[2] + p[3] + p[4] + p[5] + p[6] + p[7] + p[8] + p[9]
   + p[10] + p[11] + p[12] + p[13] + p[14] + p[15] + p[16] + p[17] + p[18]
   + p[19] + p[20] + p[21] + p[22] + p[23] + p[24] + p[25] + p[26] + p[27]
   + p[28] + p[29] + p[30] + p[31] + p[32] + p[33] + p[34] + p[35] + p[36]
   + p[37] + p[38] + p[39] - f <= 39
 R240: p[0] - f >= 0
 R241: p[1] - f >= 0
 R242: p[2] - f >= 0
 R243: p[3] - f >= 0
 R244: p[4] - f >= 0
 R245: p[5] - f >= 0
 R246: p[6] - f >= 0
 R247: p[7] - f >= 0
 R248: p[8] - f >= 0
 R249: p[9] - f >= 0
 R250: p[10] - f >= 0
 R251: p[11] - f >= 0
 R252: p[12] - f >= 0
 R253: p[13] - f >= 0
 R254: p[14] - f >= 0
 R255: p[15] - f >= 0
 R256: p[16] - f >= 0
 R257: p[17] - f >= 0
 R258: p[18] - f >= 0
 R259: p[19] - f >= 0
 R260: p[20] - f >= 0
 R261: p[21] - f >= 0
 R262: p[22] - f >= 0
 R263: p[23] - f >= 0
 R264: p[24] - f >= 0
 R265: p[25] - f >= 0
 R266: p[26] - f >= 0
 R267: p[27] - f >= 0
 R268: p[28] - f >= 0
 R269: p[29] - f >= 0
 R270: p[30] - f >= 0
 R271: p[31] - f >= 0
 R272: p[32] - f >= 0
 R273: p[33] - f >= 0
 R274: p[34] - f >= 0
 R275: p[35] - f >= 0
 R276: p[36] - f >= 0
 R277: p[37] - f >= 0
 R278: p[38] - f >= 0
 R279: p[39] - f >= 0
 R280: k[1] - 2 a[1] - 2 b[1] - f <= -1
 R281: k[2] - 2 a[2] - 2 b[2] - f <= -1
 R282: k[3] - 2 a[3] - 2 b[3] - f <= -1
 R283: k[4] - 2 a[4] - 2 b[4] - f <= -1
 R284: k[5] - 2 a[5] - 2 b[5] - f <= -1
 R285: k[6] - 2 a[6] - 2 b[6] - f <= -1
 R286: k[7] - 2 a[7] - 2 b[7] - f <= -1
 R287: k[8] - 2 a[8] - 2 b[8] - f <= -1
 R288: k[9] - 2 a[9] - 2 b[9] - f <= -1
 R289: k[10] - 2 a[10] - 2 b[10] - f <= -1
 R290: k[11] - 2 a[11] - 2 b[11] - f <= -1
 R291: k[12] - 2 a[12] - 2 b[12] - f <= -1
 R292: k[13] - 2 a[13] - 2 b[13] - f <= -1
 R293: k[14] - 2 a[14] - 2 b[14] - f <= -1
 R294: k[15] - 2 a[15] - 2 b[15] - f <= -1
 R295: k[16] - 2 a[16] - 2 b[16] - f <= -1
 R296: k[17] - 2 a[17] - 2 b[17] - f <= -1
 R297: k[18] - 2 a[18] - 2 b[18] - f <= -1
 R298: k[19] - 2 a[19] - 2 b[19] - f <= -1
 R299: k[20] - 2 a[20] - 2 b[20] - f <= -1
 R300: k[21] - 2 a[21] - 2 b[21] - f <= -1
 R301: k[22] - 2 a[22] - 2 b[22] - f <= -1
 R302: k[23] - 2 a[23] - 2 b[23] - f <= -1
 R303: k[24] - 2 a[24] - 2 b[24] - f <= -1
 R304: k[25] - 2 a[25] - 2 b[25] - f <= -1
 R305: k[26] - 2 a[26] - 2 b[26] - f <= -1
 R306: k[27] - 2 a[27] - 2 b[27] - f <= -1
 R307: k[28] - 2 a[28] - 2 b[28] - f <= -1
 R308: k[29] - 2 a[29] - 2 b[29] - f <= -1
 R309: k[30] - 2 a[30] - 2 b[30] - f <= -1
 R310: k[31] - 2 a[31] - 2 b[31] - f <= -1
 R311: k[32] - 2 a[32] - 2 b[32] - f <= -1
 R312: k[33] - 2 a[33] - 2 b[33] - f <= -1
 R313: k[34] - 2 a[34] - 2 b[34] - f <= -1
 R314: k[35] - 2 a[35] - 2 b[35] - f <= -1
 R315: k[36] - 2 a[36] - 2 b[36] - f <= -1
 R316: k[37] - 2 a[37] - 2 b[37] - f <= -1
 R317: k[38] - 2 a[38] - 2 b[38] - f <= -1
 R318: k[39] - 2 a[39] - 2 b[39] - f <= -1
 R319: k[40] - 2 a[40] - 2 b[40] - f <= -1
 R320: k[41] - 2 a[41] - 2 b[41] - f <= -1
 R321: k[42] - 2 a[42] - 2 b[42] - f <= -1
 R322: k[43] - 2 a[43] - 2 b[43] - f <= -1
 R323: k[44] - 2 a[44] - 2 b[44] - f <= -1
 R324: k[45] - 2 a[45] - 2 b[45] - f <= -1
 R325: k[46] - 2 a[46] - 2 b[46] - f <= -1
 R326: k[47] - 2 a[47] - 2 b[47] - f <= -1
 R327: k[48] - 2 a[48] - 2 b[48] - f <= -1
 R328: k[49] - 2 a[49] - 2 b[49] - f <= -1
 R329: k[50] - 2 a[50] - 2 b[50] - f <= -1
Bounds
Binaries
 k[1] a[1] b[1] s[1][19] s[1][20] s[1][21] s[1][22] s[1][23] s[1][24] k[2]
 a[2] b[2] s[2][20] s[2][24] k[3] a[3] b[3] s[3][0] s[3][8] k[4] a[4] b[4]
 s[4][28] s[4][29] s[4][30] s[4][31] s[4][32] s[4][33] k[5] a[5] b[5]
 s[5][28] s[5][30] s[5][32] s[5][34] s[5][36] s[5][38] k[6] a[6] b[6]
 s[6][33] s[6][34] s[6][35] s[6][36] s[6][37] s[6][38] k[7] a[7] b[7]
 s[7][2] s[7][3] s[7][4] s[7][5] s[7][6] s[7][7] k[8] a[8] b[8] s[8][1]
 s[8][2] s[8][3] s[8][4] s[8][5] s[8][6] k[9] a[9] b[9] s[9][2] s[9][3]
 s[9][4] s[9][5] s[9][6] s[9][7] k[10] a[10] b[10] s[10][11] s[10][12]
 s[10][13] s[10][14] s[10][15] s[10][16] k[11] a[11] b[11] s[11][12]
 s[11][14] s[11][16] s[11][18] s[11][20] s[11][22] k[12] a[12] b[12]
 s[12][32] s[12][36] k[13] a[13] b[13] s[13][10] s[13][11] s[13][12]
 s[13][13] s[13][14] s[13][15] k[14] a[14] b[14] s[14][0] s[14][2] s[14][4]
 s[14][6] s[14][8] s[14][10] k[15] a[15] b[15] s[15][16] s[15][18]
 s[15][20] s[15][22] s[15][24] s[15][26] k[16] a[16] b[16] s[16][20]
 s[16][21] s[16][22] s[16][23] s[16][24] s[16][25] k[17] a[17] b[17]
 s[17][16] s[17][24] k[18] a[18] b[18] s[18][32] s[18][33] s[18][34]
 s[18][35] s[18][36] s[18][37] k[19] a[19] b[19] s[19][26] s[19][28]
 s[19][30] s[19][32] s[19][34] s[19][36] k[20] a[20] b[20] s[20][38]
 s[20][0] s[20][2] s[20][4] s[20][6] s[20][8] k[21] a[21] b[21] s[21][24]
 s[21][26] s[21][28] s[21][30] s[21][32] s[21][34] k[22] a[22] b[22]
 s[22][10] s[22][12] s[22][14] s[22][16] s[22][18] s[22][20] k[23] a[23]
 b[23] s[23][32] s[23][33] s[23][34] s[23][35] s[23][36] s[23][37] k[24]
 a[24] b[24] s[24][4] s[24][8] k[25] a[25] b[25] s[25][0] s[25][4] k[26]
 a[26] b[26] s[26][37] s[26][38] s[26][39] s[26][0] s[26][1] s[26][2] k[27]
 a[27] b[27] s[27][8] s[27][16] k[28] a[28] b[28] s[28][24] s[28][32] k[29]
 a[29] b[29] s[29][33] s[29][34] s[29][35] s[29][36] s[29][37] s[29][38]
 k[30] a[30] b[30] s[30][17] s[30][18] s[30][19] s[30][20] s[30][21]
 s[30][22] k[31] a[31] b[31] s[31][5] s[31][6] s[31][7] s[31][8] s[31][9]
 s[31][10] k[32] a[32] b[32] s[32][36] s[32][0] k[33] a[33] b[33] s[33][4]
 s[33][8] k[34] a[34] b[34] s[34][9] s[34][10] s[34][11] s[34][12]
 s[34][13] s[34][14] k[35] a[35] b[35] s[35][38] s[35][39] s[35][0]
 s[35][1] s[35][2] s[35][3] k[36] a[36] b[36] s[36][34] s[36][35] s[36][36]
 s[36][37] s[36][38] s[36][39] k[37] a[37] b[37] s[37][24] s[37][32] k[38]
 a[38] b[38] s[38][29] s[38][30] s[38][31] s[38][32] s[38][33] s[38][34]
 k[39] a[39] b[39] s[39][28] s[39][32] k[40] a[40] b[40] s[40][20]
 s[40][22] s[40][24] s[40][26] s[40][28] s[40][30] k[41] a[41] b[41]
 s[41][0] s[41][4] k[42] a[42] b[42] s[42][31] s[42][32] s[42][33]
 s[42][34] s[42][35] s[42][36] k[43] a[43] b[43] s[43][24] s[43][28] k[44]
 a[44] b[44] s[44][4] s[44][8] k[45] a[45] b[45] s[45][0] s[45][8] k[46]
 a[46] b[46] s[46][38] s[46][0] s[46][2] s[46][4] s[46][6] s[46][8] k[47]
 a[47] b[47] s[47][28] s[47][30] s[47][32] s[47][34] s[47][36] s[47][38]
 k[48] a[48] b[48] s[48][24] s[48][26] s[48][28] s[48][30] s[48][32]
 s[48][34] k[49] a[49] b[49] s[49][24] s[49][32] k[50] a[50] b[50]
 s[50][24] s[50][32] p[0] p[1] p[2] p[3] p[4] p[5] p[6] p[7] p[8] p[9]
 p[10] p[11] p[12] p[13] p[14] p[15] p[16] p[17] p[18] p[19] p[20] p[21]
 p[22] p[23] p[24] p[25] p[26] p[27] p[28] p[29] p[30] p[31] p[32] p[33]
 p[34] p[35] p[36] p[37] p[38] p[39] f
End
